unsat
( c0
  c1
  c10
  c100
  c101
  c102
  c103
  c104
  c105
  c106
  c107
  c108
  c109
  c11
  c110
  c112
  c12
  c120
  c13
  c134
  c139
  c14
  c15
  c155
  c159
  c16
  c162
  c167
  c168
  c17
  c170
  c18
  c189
  c19
  c190
  c192
  c2
  c20
  c203
  c204
  c21
  c230
  c248
  c250
  c252
  c260
  c278
  c3
  c301
  c302
  c306
  c320
  c322
  c325
  c326
  c328
  c33
  c339
  c34
  c342
  c347
  c35
  c36
  c37
  c372
  c38
  c39
  c392
  c4
  c40
  c405
  c41
  c42
  c429
  c43
  c430
  c44
  c45
  c455
  c456
  c46
  c460
  c47
  c48
  c49
  c5
  c50
  c51
  c52
  c53
  c54
  c55
  c56
  c560
  c57
  c58
  c59
  c6
  c60
  c61
  c62
  c63
  c64
  c65
  c66
  c67
  c68
  c69
  c7
  c70
  c71
  c72
  c73
  c74
  c75
  c76
  c77
  c78
  c79
  c8
  c80
  c81
  c82
  c83
  c84
  c85
  c86
  c87
  c88
  c89
  c9
  c90
  c91
  c92
  c93
  c94
  c95
  c96
  c97
  c98
  c99 )
